decision_x1=[0,4];
decision_x2=[0,4];
decision_x3=[0,4];
decision_x4=[0,4];
random_y1=[0,4];
random_y2=[0,4];
constraint_x2_x1=[
0,1,0.91|
0,2,1.2|
0,3,3.5|
0,4,6.7|
1,0,9.4|
1,2,5.7|
1,3,0.89|
1,4,4.3|
2,0,2.4|
2,1,6.2|
2,3,5.7|
2,4,2.8|
3,0,4.6|
3,1,4.8|
3,2,6.6|
3,4,2.4|
4,0,6.5|
4,1,9|
4,2,4.3|
4,3,8.1|
];
constraint_x4_x2=[
0,1,3|
0,2,6.6|
0,3,5|
0,4,0.88|
1,0,4|
1,2,7|
1,3,1.2|
1,4,1.8|
2,0,6.1|
2,1,2.3|
2,3,1.9|
2,4,7.5|
3,0,8.1|
3,1,3.4|
3,2,9.8|
3,4,0.24|
4,0,7.8|
4,1,5.4|
4,2,9.2|
4,3,8.8|
];
constraint_x4_x3=[
0,1,2.9|
0,2,6.9|
0,3,4.3|
0,4,0.94|
1,0,9.8|
1,2,1.6|
1,3,1.1|
1,4,8.4|
2,0,4.1|
2,1,6.6|
2,3,0.97|
2,4,0.63|
3,0,8|
3,1,0.64|
3,2,6.7|
3,4,9.8|
4,0,0.28|
4,1,4.9|
4,2,6|
4,3,3.4|
];
constraint_x1_y1=[
0,0,6.8|
0,1,0.36|
0,2,5.6|
0,3,4.4|
0,4,5.3|
1,0,3|
1,1,2.7|
1,2,8.1|
1,3,5.1|
1,4,7.2|
2,0,3.6|
2,1,8.5|
2,2,9.7|
2,3,4.1|
2,4,9.1|
3,0,5.4|
3,1,2|
3,2,9.2|
3,3,4.8|
3,4,8.7|
4,0,7.9|
4,1,6.8|
4,2,5.9|
4,3,6.4|
4,4,9.2|
];
constraint_x2_y2=[
0,0,1.7|
0,1,2.3|
0,2,5.6|
0,3,4.5|
0,4,6.3|
1,0,4.6|
1,1,4.1|
1,2,6.5|
1,3,6.4|
1,4,3.5|
2,0,2.2|
2,1,0.014|
2,2,0.13|
2,3,4.8|
2,4,3.8|
3,0,9.6|
3,1,6.1|
3,2,0.49|
3,3,7.3|
3,4,7.4|
4,0,0.7|
4,1,8|
4,2,3.9|
4,3,7.2|
4,4,4.9|
];
initial_distribution_y1=[0.046,0.11,0.33,0.2,0.32];
initial_distribution_y2=[0.089,0.42,0.36,0.096,0.032];
transition_y1=[
0.19,0.27,0.29,0.0078,0.24|
0.032,0.46,0.052,0.29,0.17|
0.0085,0.0097,0.47,0.12,0.38|
0.21,0.33,0.14,0.11,0.21|
0.21,0.028,0.14,0.27,0.35|
];
transition_y2=[
0.16,0.084,0.14,0.28,0.34|
0.055,0.31,0.3,0.13,0.21|
0.088,0.31,0.096,0.48,0.017|
0.023,0.13,0.6,0.24,0.0083|
0.36,0.28,0.09,0.044,0.22|
];
